NAME : tsp_191_sol.txt
COMMENT : OR-Tools Guided Local Search
TYPE : TOUR
DIMENSION : 103
COST : 8105
STATUS : ROUTING_SUCCESS
GAP : 0.00% (Reference Solution)
TOUR_SECTION
1
78
61
49
64
88
26
3
67
50
33
103
98
35
92
52
14
28
82
36
54
10
13
27
38
102
23
81
43
24
63
37
93
55
86
32
60
41
74
9
87
34
8
90
25
79
18
17
47
46
77
65
12
96
95
48
45
99
6
58
42
29
70
22
20
19
4
94
15
56
68
73
69
75
66
100
57
21
83
51
72
89
80
76
7
59
101
71
40
30
91
84
53
62
97
5
85
39
11
2
31
16
44
-1
